Route 1: 14 16 44 38 43 13

Route 2: 42 2 21 6 17

Route 3: 45 30 9 35

Route 4: 33 29 50 4 25

Route 5: 47 8 46 48

Route 6: 39 23 22 41 26

Route 7: 5 15 37

Route 8: 28 40 1

Route 9: 36 18 7 20 32

Route 10: 31 11 19 49 10

Route 11: 27 12 3 34 24

Vehicles: 11

Distance: 1185.50

